122 5
10 10 10 10 10 

0 0 0 0 0 0 5 2 14 26 38 50 
0 0 0 0 0 0 2 3 5 
5 0 0 1 0 0 1 4 
9 0 0 5 0 0 2 9 6 
1 0 0 6 0 0 2 9 7 
6 0 0 4 0 0 1 7 
9 0 0 7 0 0 2 12 8 
7 0 0 2 0 0 1 10 
9 0 0 3 0 0 1 10 
5 0 0 8 0 0 1 11 
1 0 0 9 0 0 1 13 
6 0 0 5 0 0 1 13 
0 0 0 0 0 0 1 62 
0 0 0 0 0 0 2 15 18 
1 0 1 0 0 0 1 16 
1 0 7 0 0 0 1 17 
10 0 4 0 0 0 2 20 19 
4 0 9 0 0 0 2 20 19 
9 0 6 0 0 0 1 21 
7 0 4 0 0 0 1 21 
9 0 8 0 0 0 1 22 
9 0 3 0 0 0 2 24 23 
1 0 5 0 0 0 1 25 
3 0 3 0 0 0 1 25 
0 0 0 0 0 0 1 62 
0 0 0 0 0 0 1 27 
1 0 0 1 0 0 2 33 28 
4 0 0 5 0 0 2 36 29 
5 0 0 6 0 0 1 30 
3 0 0 7 0 0 2 35 31 
9 0 0 6 0 0 1 32 
4 0 0 2 0 0 1 34 
1 0 0 4 0 0 1 35 
8 0 0 8 0 0 1 37 
4 0 0 7 0 0 1 37 
3 0 0 4 0 0 1 37 
0 0 0 0 0 0 1 62 
0 0 0 0 0 0 2 39 45 
2 0 0 1 0 0 1 40 
4 0 0 6 0 0 2 47 41 
1 0 0 2 0 0 2 48 42 
4 0 0 5 0 0 1 43 
1 0 0 5 0 0 1 44 
2 0 0 9 0 0 1 46 
2 0 0 1 0 0 1 47 
9 0 0 7 0 0 1 49 
7 0 0 6 0 0 1 49 
9 0 0 8 0 0 1 49 
0 0 0 0 0 0 1 62 
0 0 0 0 0 0 2 51 53 
10 1 0 0 0 0 1 52 
10 5 0 0 0 0 2 55 54 
3 3 0 0 0 0 2 56 55 
5 6 0 0 0 0 2 58 56 
6 5 0 0 0 0 2 58 57 
4 6 0 0 0 0 1 57 
5 9 0 0 0 0 1 59 
6 6 0 0 0 0 1 59 
3 4 0 0 0 0 1 60 
7 5 0 0 0 0 1 61 
0 0 0 0 0 0 1 62 
0 0 0 0 0 0 2 63 75 
0 0 0 0 0 0 2 64 66 
9 0 0 0 1 0 1 65 
10 0 0 0 7 0 1 67 
2 0 0 0 9 0 1 67 
5 0 0 0 8 0 2 70 68 
10 0 0 0 4 0 1 69 
6 0 0 0 8 0 1 71 
2 0 0 0 1 0 1 71 
9 0 0 0 5 0 2 73 72 
6 0 0 0 4 0 1 74 
9 0 0 0 3 0 1 74 
0 0 0 0 0 0 1 87 
0 0 0 0 0 0 1 76 
5 0 0 0 0 1 1 77 
5 0 0 0 0 4 1 78 
4 0 0 0 0 4 2 80 79 
7 0 0 0 0 7 2 84 82 
5 0 0 0 0 8 2 83 81 
3 0 0 0 0 9 1 84 
4 0 0 0 0 5 1 83 
5 0 0 0 0 2 1 85 
2 0 0 0 0 4 1 85 
4 0 0 0 0 6 1 86 
0 0 0 0 0 0 1 87 
0 0 0 0 0 0 1 88 
5 0 0 0 0 1 3 92 90 89 
4 0 0 0 0 4 1 91 
2 0 0 0 0 5 1 91 
10 0 0 0 0 2 2 96 93 
9 0 0 0 0 9 2 96 93 
4 0 0 0 0 6 1 94 
4 0 0 0 0 7 1 95 
8 0 0 0 0 7 1 97 
6 0 0 0 0 4 1 97 
5 0 0 0 0 5 1 98 
0 0 0 0 0 0 1 99 
0 0 0 0 0 0 2 100 104 
1 0 0 0 0 3 2 107 101 
1 0 0 0 0 5 1 102 
5 0 0 0 0 10 1 103 
4 0 0 0 0 5 1 105 
7 0 0 0 0 5 1 105 
5 0 0 0 0 7 2 109 106 
9 0 0 0 0 4 1 108 
10 0 0 0 0 5 1 108 
9 0 0 0 0 2 1 110 
9 0 0 0 0 4 1 110 
0 0 0 0 0 0 1 111 
0 0 0 0 0 0 2 112 114 
3 0 1 0 0 0 3 117 116 113 
6 0 8 0 0 0 1 115 
1 0 6 0 0 0 1 115 
10 0 9 0 0 0 1 118 
7 0 3 0 0 0 1 118 
8 0 6 0 0 0 1 118 
7 0 3 0 0 0 1 119 
6 0 6 0 0 0 1 120 
8 0 3 0 0 0 1 121 
1 0 5 0 0 0 1 122 
0 0 0 0 0 0 0 
